WARNING: for repeatability, setting FPU to use double precision
============================[ Problem Statistics ]=============================
|                                                                             |
|  Number of variables:          3641                                         |
|  Number of clauses:            4456                                         |
|  Parse time:                   0.01 s                                       |
|                                                                             |
============================[ Search Statistics ]==============================
| Conflicts |          ORIGINAL         |          LEARNT          | Progress |
|           |    Vars  Clauses Literals |    Limit  Clauses Lit/Cl |          |
===============================================================================
|       100 |    3640     4456    11309 |     1633       99     35 |  0.027 % |
|       250 |    3640     4453    11301 |     1797      247     47 |  0.027 % |
|       475 |    3640     4453    11301 |     1976      472     45 |  0.027 % |
|       812 |    3640     4453    11301 |     2174      809     46 |  0.027 % |
|      1318 |    3640     4453    11301 |     2392     1315     44 |  0.027 % |
|      2077 |    3640     4453    11301 |     2631     2074     44 |  0.028 % |
|      3216 |    3640     4453    11301 |     2894     1793     37 |  0.027 % |
|      4924 |    3640     4453    11301 |     3183     2006     30 |  0.027 % |
|      7486 |    3640     4453    11301 |     3502     2820     35 |  0.027 % |
|     11330 |    3640     4453    11301 |     3852     3099     27 |  0.027 % |
|     17096 |    3640     4453    11301 |     4237     2732     23 |  0.027 % |
|     25745 |    3640     4453    11301 |     4661     2566     20 |  0.027 % |
|     38719 |    3640     4453    11301 |     5127     3287     27 |  0.028 % |
|     58180 |    3640     4453    11301 |     5640     4079     21 |  0.028 % |
|     87372 |    3640     4453    11301 |     6204     3955     25 |  0.027 % |
|    131161 |    3640     4453    11301 |     6825     5769     30 |  0.028 % |
|    196845 |    3640     4453    11301 |     7507     4732     24 |  0.027 % |
|    295371 |    3640     4453    11301 |     8258     6799     23 |  0.027 % |
|    443160 |    3640     4453    11301 |     9084     5757     22 |  0.027 % |
|    664843 |    3640     4453    11301 |     9992     8902     25 |  0.027 % |
|    997368 |    3640     4453    11301 |    10991     5363     16 |  0.027 % |
|   1496156 |    3634     4438    11262 |    12091     8356     22 |  0.192 % |
|   2244338 |    3634     4438    11262 |    13300     9732     23 |  0.192 % |
|   3366612 |    3634     4438    11262 |    14630    13388     22 |  0.193 % |
|   5050023 |    3634     4438    11262 |    16093    11600     23 |  0.192 % |
===============================================================================
restarts              : 8191
conflicts             : 5158828        (17238 /sec)
decisions             : 5743620        (0.00 % random) (19192 /sec)
propagations          : 2009921518     (6716081 /sec)
conflict literals     : 151999992      (59.08 % deleted)
Memory used           : 29.00 MB
CPU time              : 299.27 s

INDETERMINATE
